experiments/21_JSA_experiments/solutions/imx8a/cpu/IN_5.json-ILP-SM-II.out.log
Using license file /home/benedond/gurobi.lic
Using gurobi.env file
Set parameter Threads to value 1
Academic license - for non-commercial use only
Changed value of parameter TimeLimit to 300.0
   Prev: inf  Min: 0.0  Max: inf  Default: inf
Gurobi Optimizer version 9.0.1 build v9.0.1rc0 (linux64)
Optimize a model with 1003 rows, 902 columns and 4274 nonzeros
Model fingerprint: 0xbe84cbd3
Variable types: 40 continuous, 862 integer (862 binary)
Coefficient statistics:
  Matrix range     [2e-01, 4e+02]
  Objective range  [4e-02, 4e-01]
  Bounds range     [1e+00, 1e+00]
  RHS range        [1e+00, 1e+03]
Presolve removed 96 rows and 56 columns
Presolve time: 0.03s
Presolved: 907 rows, 846 columns, 3926 nonzeros
Variable types: 39 continuous, 807 integer (807 binary)
Found heuristic solution: objective 5.6213093

Root relaxation: objective 2.479327e+00, 1013 iterations, 0.02 seconds

    Nodes    |    Current Node    |     Objective Bounds      |     Work
 Expl Unexpl |  Obj  Depth IntInf | Incumbent    BestBd   Gap | It/Node Time

     0     0    2.47933    0   89    5.62131    2.47933  55.9%     -    0s
     0     0    2.70196    0  101    5.62131    2.70196  51.9%     -    0s
     0     0    2.70552    0  106    5.62131    2.70552  51.9%     -    0s
     0     0    2.78902    0   94    5.62131    2.78902  50.4%     -    0s
H    0     0                       5.0327423    2.78902  44.6%     -    0s
H    0     0                       4.6527320    2.78902  40.1%     -    0s
     0     0    2.83323    0   99    4.65273    2.83323  39.1%     -    0s
     0     0    2.83739    0   69    4.65273    2.83739  39.0%     -    0s
     0     0    2.83880    0   64    4.65273    2.83880  39.0%     -    0s
     0     0    2.93064    0  116    4.65273    2.93064  37.0%     -    0s
H    0     0                       4.5143403    2.93064  35.1%     -    0s
     0     0    2.99191    0  143    4.51434    2.99191  33.7%     -    0s
     0     0    3.00141    0  119    4.51434    3.00141  33.5%     -    0s
     0     0    3.00219    0  140    4.51434    3.00219  33.5%     -    0s
     0     0    3.00254    0  143    4.51434    3.00254  33.5%     -    0s
     0     0    3.00255    0  139    4.51434    3.00255  33.5%     -    0s
     0     0    3.03450    0  119    4.51434    3.03450  32.8%     -    0s
     0     0    3.04267    0  120    4.51434    3.04267  32.6%     -    0s
     0     0    3.04842    0  134    4.51434    3.04842  32.5%     -    0s
     0     0    3.04954    0  158    4.51434    3.04954  32.4%     -    0s
     0     0    3.04975    0  138    4.51434    3.04975  32.4%     -    0s
     0     0    3.08163    0  141    4.51434    3.08163  31.7%     -    0s
     0     0    3.08623    0  138    4.51434    3.08623  31.6%     -    0s
     0     0    3.08785    0  144    4.51434    3.08785  31.6%     -    0s
     0     0    3.08806    0  146    4.51434    3.08806  31.6%     -    0s
     0     0    3.09740    0  139    4.51434    3.09740  31.4%     -    0s
H    0     0                       4.1781031    3.09740  25.9%     -    0s
     0     0    3.09864    0  158    4.17810    3.09864  25.8%     -    0s
     0     0    3.09867    0  158    4.17810    3.09867  25.8%     -    0s
     0     0    3.10764    0  155    4.17810    3.10764  25.6%     -    0s
     0     0    3.10819    0  151    4.17810    3.10819  25.6%     -    0s
     0     0    3.10824    0  160    4.17810    3.10824  25.6%     -    0s
     0     0    3.11754    0  122    4.17810    3.11754  25.4%     -    0s
     0     0    3.11884    0  133    4.17810    3.11884  25.4%     -    0s
     0     0    3.11934    0  127    4.17810    3.11934  25.3%     -    0s
     0     0    3.13001    0  132    4.17810    3.13001  25.1%     -    0s
     0     0    3.13704    0  137    4.17810    3.13704  24.9%     -    0s
     0     0    3.13743    0  138    4.17810    3.13743  24.9%     -    0s
     0     0    3.14835    0  155    4.17810    3.14835  24.6%     -    0s
     0     0    3.15013    0  130    4.17810    3.15013  24.6%     -    0s
     0     0    3.15024    0  146    4.17810    3.15024  24.6%     -    0s
     0     0    3.16729    0  151    4.17810    3.16729  24.2%     -    0s
     0     0    3.17098    0  165    4.17810    3.17098  24.1%     -    0s
     0     0    3.17262    0  171    4.17810    3.17262  24.1%     -    0s
     0     0    3.17338    0  169    4.17810    3.17338  24.0%     -    0s
     0     0    3.17389    0  174    4.17810    3.17389  24.0%     -    0s
     0     0    3.18086    0  179    4.17810    3.18086  23.9%     -    0s
     0     0    3.18485    0  198    4.17810    3.18485  23.8%     -    0s
     0     0    3.18540    0  198    4.17810    3.18540  23.8%     -    0s
     0     0    3.18757    0  139    4.17810    3.18757  23.7%     -    0s
     0     0    3.18823    0  142    4.17810    3.18823  23.7%     -    0s
     0     0    3.18877    0  149    4.17810    3.18877  23.7%     -    0s
     0     0    3.19067    0  141    4.17810    3.19067  23.6%     -    0s
     0     0    3.19067    0  141    4.17810    3.19067  23.6%     -    1s
     0     2    3.19101    0  141    4.17810    3.19101  23.6%     -    1s
H   96    69                       3.9637217    3.20166  19.2%  78.2    2s
H  108    72                       3.8457114    3.20166  16.7%  76.2    2s
*  469   327              19       3.8453712    3.23336  15.9%  53.0    3s
*  475   321              23       3.8206907    3.23336  15.4%  52.4    3s
   553   372    3.40053   17  204    3.82069    3.26213  14.6%  48.1    5s
   684   438    3.32145   20  161    3.82069    3.30586  13.5%  62.3   10s
H  801   435                       3.8131650    3.30586  13.3%  64.2   11s
H  882   421                       3.7523711    3.30608  11.9%  69.3   12s
  1121   447    3.34273   28  147    3.75237    3.32289  11.4%  69.5   15s
  1968   724    3.56019   33   44    3.75237    3.35245  10.7%  72.5   20s
* 2359   905              46       3.7282887    3.36217  9.82%  71.5   22s
* 2748   820              49       3.6461443    3.37722  7.38%  69.5   24s
* 2780   814              33       3.6392577    3.37793  7.18%  69.2   24s
* 2792   747              40       3.6218866    3.37793  6.74%  69.0   24s
  2964   791    3.44818   26   65    3.62189    3.38262  6.61%  68.4   25s
H 3748  1016                       3.6218866    3.40637  5.95%  70.0   29s
  3835  1042     cutoff   48         3.62189    3.40732  5.92%  69.9   30s
* 3923   941              42       3.6019382    3.41376  5.22%  70.0   30s
* 3947   825              46       3.5778454    3.41392  4.58%  69.7   30s
H 4404   749                       3.5600721    3.43542  3.50%  69.3   32s
* 4460   710              36       3.5566804    3.43759  3.35%  69.3   33s
  4851   620    3.49696   34   64    3.55668    3.46639  2.54%  69.4   35s
* 4875   563              36       3.5512474    3.46701  2.37%  69.3   35s
H 5261   336                       3.5451547    3.49766  1.34%  67.7   36s

Cutting planes:
  Cover: 64
  Implied bound: 7
  Clique: 1
  MIR: 271
  StrongCG: 8
  Flow cover: 416
  Inf proof: 1
  RLT: 4
  Relax-and-lift: 141

Explored 5656 nodes (374846 simplex iterations) in 37.34 seconds
Thread count was 1 (of 4 available processors)

Solution count 10: 3.54515 3.55125 3.55668 ... 3.64614

Optimal solution found (tolerance 1.00e-04)
Best objective 3.545154651877e+00, best bound 3.544903496398e+00, gap 0.0071%
